(set-logic QF_BV)
(declare-fun _substvar_4131_ () Bool)
(declare-fun _substvar_2463_ () (_ BitVec 11))
(declare-fun _substvar_1987_ () (_ BitVec 11))
(declare-fun _substvar_8309_ () Bool)
(declare-fun _substvar_2481_ () (_ BitVec 11))
(declare-fun _substvar_1988_ () (_ BitVec 11))
(declare-fun _substvar_2516_ () (_ BitVec 11))
(declare-fun _substvar_2419_ () (_ BitVec 11))
(declare-fun _substvar_8317_ () Bool)
(declare-fun _substvar_2379_ () (_ BitVec 11))
(declare-fun _substvar_6578_ () Bool)
(declare-fun _substvar_2377_ () (_ BitVec 11))
(define-fun addok ((x (_ BitVec 11)) (y (_ BitVec 11))) Bool (= ((_ extract 11 11) (bvadd ((_ zero_extend 1) x) ((_ zero_extend 1) y))) (_ bv0 1)))
(assert (or (and true true (= _substvar_1987_ (_ bv0 11))) (and true true (= _substvar_1987_ (bvsub (_ bv17 11) (_ bv0 11)))) (and true true (= _substvar_1987_ (bvsub (_ bv1 11) (_ bv17 11)))) false false false false false false false (and true true true (= _substvar_1987_ (bvsub (_ bv1019 11) (_ bv17 11)))) (and true true true (= _substvar_1987_ (bvadd (_ bv17 11) (_ bv41 11)))) false false (and true true true (= _substvar_1987_ (bvadd (_ bv17 11) (_ bv527 11)))) false (and true true true (= _substvar_1987_ (bvsub (_ bv0 11) (_ bv17 11)))) (and true true true (= _substvar_1987_ (bvadd (_ bv0 11) (_ bv51 11)))) false (and true true true (= _substvar_1987_ (bvsub (_ bv51 11) (_ bv17 11)))) (and true true true (= _substvar_1987_ (bvadd (_ bv17 11) (_ bv95 11)))) false (and true true true (= _substvar_1987_ (bvsub (_ bv95 11) (_ bv17 11)))) (and true true true (= _substvar_1987_ (bvadd (_ bv17 11) _substvar_1988_))) (and true true (bvugt (_ bv17 11) _substvar_1988_) (= _substvar_1987_ (bvsub (_ bv0 11) _substvar_1988_))) false false false false false false false false (and true true true (= _substvar_1987_ (bvsub (_ bv0 11) (_ bv5 11)))) false false false false false false false false false (and true true true (= _substvar_1987_ (bvadd (_ bv5 11) (_ bv95 11)))) false false (and true true (addok (_ bv5 11) _substvar_1988_) (= _substvar_1987_ (bvadd (_ bv5 11) _substvar_1988_))) false (and true true (bvugt _substvar_1988_ (_ bv5 11)) (= _substvar_1987_ (bvsub _substvar_1988_ (_ bv5 11)))) (and true true (= _substvar_1987_ (bvadd (_ bv1019 11) (_ bv0 11)))) (and true (bvugt _substvar_2419_ (_ bv0 11)) (= _substvar_1987_ (bvsub (_ bv1019 11) (_ bv1 11)))) false false false (and true true true (= _substvar_1987_ (bvadd (_ bv1019 11) (_ bv41 11)))) false false false false false false false false false false false false false false (and true true (= _substvar_1987_ (bvadd (_ bv41 11) (_ bv1 11)))) false false false false false false false (and true true true (= _substvar_1987_ (bvadd (_ bv41 11) (_ bv51 11)))) (and true true true (= _substvar_1987_ (bvsub (_ bv0 11) (_ bv51 11)))) false false false false (and true true true (= _substvar_1987_ (bvadd (_ bv0 11) _substvar_1988_))) (and true true _substvar_8317_ (= _substvar_1987_ (bvsub (_ bv41 11) _substvar_1988_))) (and true true (bvugt _substvar_1988_ (_ bv41 11)) (= _substvar_1987_ (bvsub _substvar_1988_ (_ bv41 11)))) (and true true (= _substvar_1987_ (bvadd (_ bv527 11) (_ bv1 11)))) (and true _substvar_8309_ (= _substvar_1987_ (bvsub (_ bv527 11) (_ bv1 11)))) false false false (and true true true (= _substvar_1987_ (bvadd (_ bv527 11) (_ bv0 11)))) (and true true true (= _substvar_1987_ (bvsub (_ bv527 11) (_ bv51 11)))) false false false false false false false false false false false false false false false (and true true _substvar_4131_ (= _substvar_1987_ (_ bv0 11))) false false false false false false false false false (and true true (bvugt _substvar_1988_ (_ bv0 11)) (= _substvar_1987_ (bvsub (_ bv0 11) (_ bv95 11)))) (and true true (= _substvar_1987_ (bvadd (_ bv0 11) (_ bv1 11)))) false false false false))
(assert (or false false false false false false (and false false false (= _substvar_2377_ (_ bv0 11))) false false false false false false false false false false (and true true true (= _substvar_2377_ (bvadd (_ bv0 11) (_ bv51 11)))) false false (and true true true (= _substvar_2377_ (bvadd (_ bv17 11) (_ bv0 11)))) false false (and true true (addok _substvar_2463_ _substvar_1988_) (= _substvar_2377_ (bvadd (_ bv0 11) _substvar_1988_))) (and true true (bvugt (_ bv17 11) _substvar_1988_) (= _substvar_2377_ (bvsub (_ bv17 11) _substvar_1988_))) (and true true true (= _substvar_2377_ (bvsub _substvar_1988_ (_ bv17 11)))) (and true true (addok _substvar_2516_ _substvar_1987_) (= _substvar_2377_ (bvadd (_ bv17 11) _substvar_1987_))) (and true true (bvugt (_ bv17 11) _substvar_1987_) (= _substvar_2377_ (bvsub (_ bv17 11) _substvar_1987_))) (and true true (bvugt _substvar_1987_ (_ bv17 11)) (= _substvar_2377_ (bvsub _substvar_1987_ (_ bv17 11)))) (and true true (= _substvar_2377_ (bvadd (_ bv0 11) (_ bv1 11)))) false false false false false false false false false false false false false (and true true true (= _substvar_2377_ (bvadd (_ bv5 11) (_ bv0 11)))) false false false false false false false false false false false false false false false false false false false false false false false false false false false false false false false false false false false false false false false false false false false false false false false false false false false false false false false false false false false false false false false false false false false false false false false false false false false false (and true true true (= _substvar_2377_ (bvadd (_ bv0 11) (_ bv95 11)))) false false (and true true true (= _substvar_2377_ (bvadd (_ bv51 11) _substvar_1988_))) (and true true (bvugt (_ bv51 11) _substvar_1988_) (= _substvar_2377_ (bvsub (_ bv51 11) _substvar_1988_))) (and true true (bvugt _substvar_1988_ (_ bv51 11)) (= _substvar_2377_ (_ bv0 11))) false (and true true true (= _substvar_2377_ (bvsub (_ bv0 11) _substvar_1987_))) (and true true (bvugt _substvar_1987_ (_ bv51 11)) (= _substvar_2377_ (_ bv0 11))) (and true true (= _substvar_2377_ (_ bv0 11))) (and true true (= _substvar_2377_ (bvsub (_ bv95 11) (_ bv1 11)))) false false false (and true true true (= _substvar_2377_ (bvadd (_ bv95 11) _substvar_1988_))) (and true true (bvugt (_ bv95 11) _substvar_1988_) (= _substvar_2377_ (bvsub (_ bv95 11) _substvar_1988_))) false false false false false false false false false false false (and true true (bvugt _substvar_1987_ _substvar_1988_) (= _substvar_2377_ (_ bv0 11))) (and true (addok _substvar_1987_ _substvar_2481_) (= _substvar_2377_ (_ bv0 11))) false false false false))
(assert (or false false false false false false false false false false false false false false false false false false false false false false false false false false false false false false false false false false false false false false false false false false false false false false false false false false false false false false false false false false (and true true _substvar_6578_ (= _substvar_2379_ (bvadd (_ bv5 11) _substvar_2377_))) (and true true true (= _substvar_2379_ (_ bv0 11))) (and true true true (= _substvar_2379_ (bvsub (_ bv0 11) (_ bv5 11)))) (and true true (= _substvar_2379_ (bvadd (_ bv0 11) (_ bv1 11)))) false false false false false false false false false false false false false false false false false false false false false false false false (and true true (bvugt _substvar_2377_ (_ bv1019 11)) (= _substvar_2379_ (_ bv0 11))) false false false false false (and true true true (= _substvar_2379_ (bvadd (_ bv0 11) (_ bv527 11)))) false false false false false false false false false false false false false false false false false false false false false false false false false false false false false false false false false false false false false false false false false false false false false false false false false false false false false false false false false false false false false false false false false false false false false false (and true (bvugt (_ bv1 11) _substvar_1988_) (= _substvar_2379_ (bvsub (_ bv0 11) _substvar_1988_))) false false (and true true (addok _substvar_1988_ _substvar_1987_) (= _substvar_2379_ (bvadd _substvar_1988_ _substvar_1987_))) (and true true true (= _substvar_2379_ (bvsub _substvar_1988_ _substvar_1987_))) (and true true (bvugt _substvar_1987_ _substvar_1988_) (= _substvar_2379_ (bvsub _substvar_1987_ _substvar_1988_))) false false false false false false false false false false false false false false false false))
(assert (or (= (_ bv991 11) _substvar_1987_) (= (_ bv991 11) _substvar_2377_) (= (_ bv991 11) _substvar_2379_)))
(assert (or (= (_ bv905 11) _substvar_1987_) (= (_ bv905 11) _substvar_2377_) (= (_ bv905 11) _substvar_2379_)))
(check-sat)
(exit)
